27979
1 0 1 1 0 0 1 1 1 0 1 0 1 0 0 1 0 0 1 1 1 1 1 1 1 1 0 1 1 1 
18 19 21 27 2 12 15 27 22 28 29 28 10 3 28 18 3 20 22 0 18 21 23 24 10 18 27 19 29 2 19 19 19 21 27 6 20 8 24 15 18 8 6 29 8 19 3 21 19 20 24 24 24 21 8 6 25 8 18 7 29 0 7 8 3 25 23 19 28 25 18 12 19 8 23 23 20 23 8 24 10 0 8 25 29 10 6 2 27 7 28 6 25 25 2 3 28 6 0 28 28 15 25 18 29 0 29 24 22 3 19 29 27 12 12 8 28 7 0 8 20 25 28 19 19 21 2 12 6 0 28 24 25 20 23 8 3 3 28 10 12 22 12 25 25 2 24 15 27 25 24 0 23 0 8 28 2 15 3 3 3 27 10 24 23 27 23 29 3 21 23 20 19 10 29 2 0 10 29 10 2 21 2 19 12 8 28 23 0 21 2 21 6 29 7 12 7 15 10 6 
